p cnf 963 2472
51 -2 -696 0
-51 2 0
-51 696 0
52 -51 -3 0
-52 51 0
-52 3 0
53 -5 -4 0
-53 5 0
-53 4 0
54 -53 -6 0
-54 53 0
-54 6 0
55 -697 -698 0
-55 697 0
-55 698 0
56 -8 -7 0
-56 8 0
-56 7 0
57 -56 -699 0
-57 56 0
-57 699 0
58 -700 -55 0
-58 700 0
-58 55 0
59 -701 -4 0
-59 701 0
-59 4 0
60 -59 -702 0
-60 59 0
-60 702 0
61 -703 -58 0
-61 703 0
-61 58 0
62 -13 -12 0
-62 13 0
-62 12 0
63 -62 -704 0
-63 62 0
-63 704 0
64 -705 -61 0
-64 705 0
-64 61 0
65 -706 -6 0
-65 706 0
-65 6 0
66 -65 -707 0
-66 65 0
-66 707 0
67 -708 -64 0
-67 708 0
-67 64 0
68 -18 -17 0
-68 18 0
-68 17 0
69 -68 -19 0
-69 68 0
-69 19 0
70 -709 -67 0
-70 709 0
-70 67 0
71 -21 -20 0
-71 21 0
-71 20 0
72 -71 -710 0
-72 71 0
-72 710 0
73 -711 -70 0
-73 711 0
-73 70 0
74 -712 -701 0
-74 712 0
-74 701 0
75 -74 -713 0
-75 74 0
-75 713 0
76 -714 -73 0
-76 714 0
-76 73 0
77 -715 -20 0
-77 715 0
-77 20 0
78 -77 -16 0
-78 77 0
-78 16 0
79 -716 -76 0
-79 716 0
-79 76 0
80 -717 -718 0
-80 717 0
-80 718 0
81 -80 -719 0
-81 80 0
-81 719 0
82 -720 -79 0
-82 720 0
-82 79 0
83 -29 -28 0
-83 29 0
-83 28 0
84 -83 -3 0
-84 83 0
-84 3 0
85 -721 -82 0
-85 721 0
-85 82 0
86 -722 -28 0
-86 722 0
-86 28 0
87 -86 -723 0
-87 86 0
-87 723 0
88 -724 -85 0
-88 724 0
-88 85 0
89 -704 -10 0
-89 704 0
-89 10 0
90 -89 -11 0
-90 89 0
-90 11 0
91 -725 -88 0
-91 725 0
-91 88 0
92 -31 -5 0
-92 31 0
-92 5 0
93 -92 -726 0
-93 92 0
-93 726 0
94 -727 -91 0
-94 727 0
-94 91 0
95 -713 -23 0
-95 713 0
-95 23 0
96 -95 -707 0
-96 95 0
-96 707 0
97 -728 -94 0
-97 728 0
-97 94 0
98 -33 -32 0
-98 33 0
-98 32 0
99 -98 -34 0
-99 98 0
-99 34 0
100 -729 -97 0
-100 729 0
-100 97 0
101 -10 -696 0
-101 10 0
-101 696 0
102 -101 -730 0
-102 101 0
-102 730 0
103 -731 -100 0
-103 731 0
-103 100 0
104 -732 -33 0
-104 732 0
-104 33 0
105 -104 -35 0
-105 104 0
-105 35 0
106 -733 -103 0
-106 733 0
-106 103 0
107 -37 -21 0
-107 37 0
-107 21 0
108 -107 -734 0
-108 107 0
-108 734 0
109 -735 -106 0
-109 735 0
-109 106 0
110 -736 -737 0
-110 736 0
-110 737 0
111 -110 -738 0
-111 110 0
-111 738 0
112 -739 -109 0
-112 739 0
-112 109 0
113 -699 -8 0
-113 699 0
-113 8 0
114 -113 -3 0
-114 113 0
-114 3 0
115 -740 -112 0
-115 740 0
-115 112 0
116 -741 -732 0
-116 741 0
-116 732 0
117 -116 -713 0
-117 116 0
-117 713 0
118 -742 -115 0
-118 742 0
-118 115 0
119 -712 -743 0
-119 712 0
-119 743 0
120 -119 -744 0
-120 119 0
-120 744 0
121 -745 -118 0
-121 745 0
-121 118 0
122 -704 -702 0
-122 704 0
-122 702 0
123 -122 -42 0
-123 122 0
-123 42 0
124 -746 -121 0
-124 746 0
-124 121 0
125 -41 -706 0
-125 41 0
-125 706 0
126 -125 -747 0
-126 125 0
-126 747 0
127 -748 -124 0
-127 748 0
-127 124 0
128 -744 -738 0
-128 744 0
-128 738 0
129 -128 -24 0
-129 128 0
-129 24 0
130 -749 -127 0
-130 749 0
-130 127 0
131 -747 -26 0
-131 747 0
-131 26 0
132 -131 -702 0
-132 131 0
-132 702 0
133 -750 -130 0
-133 750 0
-133 130 0
134 -17 -743 0
-134 17 0
-134 743 0
135 -134 -726 0
-135 134 0
-135 726 0
136 -751 -133 0
-136 751 0
-136 133 0
137 -44 -752 0
-137 44 0
-137 752 0
138 -137 -741 0
-138 137 0
-138 741 0
139 -753 -136 0
-139 753 0
-139 136 0
140 -45 -28 0
-140 45 0
-140 28 0
141 -140 -710 0
-141 140 0
-141 710 0
142 -754 -139 0
-142 754 0
-142 139 0
143 -46 -17 0
-143 46 0
-143 17 0
144 -143 -722 0
-144 143 0
-144 722 0
145 -755 -142 0
-145 755 0
-145 142 0
146 -37 -28 0
-146 37 0
-146 28 0
147 -146 -704 0
-147 146 0
-147 704 0
148 -756 -145 0
-148 756 0
-148 145 0
149 -46 -31 0
-149 46 0
-149 31 0
150 -149 -1 0
-150 149 0
-150 1 0
151 -757 -148 0
-151 757 0
-151 148 0
152 -25 -696 0
-152 25 0
-152 696 0
153 -152 -43 0
-153 152 0
-153 43 0
154 -758 -151 0
-154 758 0
-154 151 0
155 -759 -760 0
-155 759 0
-155 760 0
156 -155 -761 0
-156 155 0
-156 761 0
157 -762 -154 0
-157 762 0
-157 154 0
158 -763 -27 0
-158 763 0
-158 27 0
159 -158 -18 0
-159 158 0
-159 18 0
160 -764 -157 0
-160 764 0
-160 157 0
161 -730 -26 0
-161 730 0
-161 26 0
162 -161 -11 0
-162 161 0
-162 11 0
163 -765 -160 0
-163 765 0
-163 160 0
164 -706 -738 0
-164 706 0
-164 738 0
165 -164 -19 0
-165 164 0
-165 19 0
166 -766 -163 0
-166 766 0
-166 163 0
167 -44 -8 0
-167 44 0
-167 8 0
168 -167 -723 0
-168 167 0
-168 723 0
169 -767 -166 0
-169 767 0
-169 166 0
170 -768 -30 0
-170 768 0
-170 30 0
171 -170 -702 0
-171 170 0
-171 702 0
172 -769 -169 0
-172 769 0
-172 169 0
173 -770 -31 0
-173 770 0
-173 31 0
174 -173 -726 0
-174 173 0
-174 726 0
175 -771 -172 0
-175 771 0
-175 172 0
176 -772 -719 0
-176 772 0
-176 719 0
177 -176 -22 0
-177 176 0
-177 22 0
178 -773 -175 0
-178 773 0
-178 175 0
179 -32 -726 0
-179 32 0
-179 726 0
180 -179 -772 0
-180 179 0
-180 772 0
181 -774 -178 0
-181 774 0
-181 178 0
182 -39 -775 0
-182 39 0
-182 775 0
183 -182 -776 0
-183 182 0
-183 776 0
184 -777 -181 0
-184 777 0
-184 181 0
185 -734 -25 0
-185 734 0
-185 25 0
186 -185 -22 0
-186 185 0
-186 22 0
187 -778 -184 0
-187 778 0
-187 184 0
188 -47 -779 0
-188 47 0
-188 779 0
189 -188 -24 0
-189 188 0
-189 24 0
190 -780 -187 0
-190 780 0
-190 187 0
191 -12 -718 0
-191 12 0
-191 718 0
192 -191 -781 0
-192 191 0
-192 781 0
193 -782 -190 0
-193 782 0
-193 190 0
194 -29 -5 0
-194 29 0
-194 5 0
195 -194 -9 0
-195 194 0
-195 9 0
196 -783 -193 0
-196 783 0
-196 193 0
197 -784 -760 0
-197 784 0
-197 760 0
198 -197 -15 0
-198 197 0
-198 15 0
199 -785 -196 0
-199 785 0
-199 196 0
200 -786 -722 0
-200 786 0
-200 722 0
201 -200 -763 0
-201 200 0
-201 763 0
202 -787 -199 0
-202 787 0
-202 199 0
203 -717 -788 0
-203 717 0
-203 788 0
204 -203 -14 0
-204 203 0
-204 14 0
205 -789 -202 0
-205 789 0
-205 202 0
206 -41 -21 0
-206 41 0
-206 21 0
207 -206 -14 0
-207 206 0
-207 14 0
208 -790 -205 0
-208 790 0
-208 205 0
209 -53 -726 0
-209 53 0
-209 726 0
210 -791 -208 0
-210 791 0
-210 208 0
211 -786 -770 0
-211 786 0
-211 770 0
212 -211 -792 0
-212 211 0
-212 792 0
213 -793 -210 0
-213 793 0
-213 210 0
214 -48 -741 0
-214 48 0
-214 741 0
215 -214 -47 0
-215 214 0
-215 47 0
216 -794 -213 0
-216 794 0
-216 213 0
217 -770 -37 0
-217 770 0
-217 37 0
218 -217 -701 0
-218 217 0
-218 701 0
219 -795 -216 0
-219 795 0
-219 216 0
220 -50 -28 0
-220 50 0
-220 28 0
221 -220 -35 0
-221 220 0
-221 35 0
222 -796 -219 0
-222 796 0
-222 219 0
223 -17 -4 0
-223 17 0
-223 4 0
224 -223 -40 0
-224 223 0
-224 40 0
225 -797 -222 0
-225 797 0
-225 222 0
226 -772 -2 0
-226 772 0
-226 2 0
227 -226 -11 0
-227 226 0
-227 11 0
228 -798 -225 0
-228 798 0
-228 225 0
229 -50 -46 0
-229 50 0
-229 46 0
230 -229 -8 0
-230 229 0
-230 8 0
231 -799 -228 0
-231 799 0
-231 228 0
232 -39 -7 0
-232 39 0
-232 7 0
233 -232 -35 0
-233 232 0
-233 35 0
234 -800 -231 0
-234 800 0
-234 231 0
235 -801 -715 0
-235 801 0
-235 715 0
236 -235 -43 0
-236 235 0
-236 43 0
237 -802 -234 0
-237 802 0
-237 234 0
238 -49 -712 0
-238 49 0
-238 712 0
239 -238 -759 0
-239 238 0
-239 759 0
240 -803 -237 0
-240 803 0
-240 237 0
241 -801 -718 0
-241 801 0
-241 718 0
242 -241 -40 0
-242 241 0
-242 40 0
243 -804 -240 0
-243 804 0
-243 240 0
244 -27 -712 0
-244 27 0
-244 712 0
245 -244 -788 0
-245 244 0
-245 788 0
246 -805 -243 0
-246 805 0
-246 243 0
247 -801 -775 0
-247 801 0
-247 775 0
248 -247 -741 0
-248 247 0
-248 741 0
249 -806 -246 0
-249 806 0
-249 246 0
250 -12 -5 0
-250 12 0
-250 5 0
251 -250 -772 0
-251 250 0
-251 772 0
252 -807 -249 0
-252 807 0
-252 249 0
253 -768 -27 0
-253 768 0
-253 27 0
254 -253 -715 0
-254 253 0
-254 715 0
255 -808 -252 0
-255 808 0
-255 252 0
256 -779 -788 0
-256 779 0
-256 788 0
257 -256 -9 0
-257 256 0
-257 9 0
258 -809 -255 0
-258 809 0
-258 255 0
259 -38 -26 0
-259 38 0
-259 26 0
260 -259 -713 0
-260 259 0
-260 713 0
261 -810 -258 0
-261 810 0
-261 258 0
262 -781 -15 0
-262 781 0
-262 15 0
263 -262 -41 0
-263 262 0
-263 41 0
264 -811 -261 0
-264 811 0
-264 261 0
265 -41 -36 0
-265 41 0
-265 36 0
266 -265 -723 0
-266 265 0
-266 723 0
267 -812 -264 0
-267 812 0
-267 264 0
268 -713 -18 0
-268 713 0
-268 18 0
269 -268 -11 0
-269 268 0
-269 11 0
270 -813 -267 0
-270 813 0
-270 267 0
271 -41 -10 0
-271 41 0
-271 10 0
272 -271 -707 0
-272 271 0
-272 707 0
273 -814 -270 0
-273 814 0
-273 270 0
274 -27 -21 0
-274 27 0
-274 21 0
275 -274 -38 0
-275 274 0
-275 38 0
276 -815 -273 0
-276 815 0
-276 273 0
277 -786 -46 0
-277 786 0
-277 46 0
278 -277 -44 0
-278 277 0
-278 44 0
279 -816 -276 0
-279 816 0
-279 276 0
280 -788 -12 0
-280 788 0
-280 12 0
281 -280 -18 0
-281 280 0
-281 18 0
282 -817 -279 0
-282 817 0
-282 279 0
283 -719 -699 0
-283 719 0
-283 699 0
284 -283 -10 0
-284 283 0
-284 10 0
285 -818 -282 0
-285 818 0
-285 282 0
286 -28 -1 0
-286 28 0
-286 1 0
287 -286 -775 0
-287 286 0
-287 775 0
288 -819 -285 0
-288 819 0
-288 285 0
289 -50 -1 0
-289 50 0
-289 1 0
290 -289 -16 0
-290 289 0
-290 16 0
291 -820 -288 0
-291 820 0
-291 288 0
292 -736 -8 0
-292 736 0
-292 8 0
293 -292 -3 0
-293 292 0
-293 3 0
294 -821 -291 0
-294 821 0
-294 291 0
295 -29 -738 0
-295 29 0
-295 738 0
296 -295 -3 0
-296 295 0
-296 3 0
297 -822 -294 0
-297 822 0
-297 294 0
298 -32 -7 0
-298 32 0
-298 7 0
299 -298 -707 0
-299 298 0
-299 707 0
300 -823 -297 0
-300 823 0
-300 297 0
301 -44 -20 0
-301 44 0
-301 20 0
302 -301 -759 0
-302 301 0
-302 759 0
303 -824 -300 0
-303 824 0
-303 300 0
304 -717 -712 0
-304 717 0
-304 712 0
305 -304 -702 0
-305 304 0
-305 702 0
306 -825 -303 0
-306 825 0
-306 303 0
307 -50 -779 0
-307 50 0
-307 779 0
308 -307 -23 0
-308 307 0
-308 23 0
309 -826 -306 0
-309 826 0
-309 306 0
310 -24 -12 0
-310 24 0
-310 12 0
311 -310 -22 0
-311 310 0
-311 22 0
312 -827 -309 0
-312 827 0
-312 309 0
313 -9 -775 0
-313 9 0
-313 775 0
314 -313 -47 0
-314 313 0
-314 47 0
315 -828 -312 0
-315 828 0
-315 312 0
316 -18 -829 0
-316 18 0
-316 829 0
317 -316 -3 0
-317 316 0
-317 3 0
318 -830 -315 0
-318 830 0
-318 315 0
319 -772 -704 0
-319 772 0
-319 704 0
320 -319 -19 0
-320 319 0
-320 19 0
321 -831 -318 0
-321 831 0
-321 318 0
322 -44 -712 0
-322 44 0
-322 712 0
323 -322 -47 0
-323 322 0
-323 47 0
324 -832 -321 0
-324 832 0
-324 321 0
325 -759 -704 0
-325 759 0
-325 704 0
326 -325 -35 0
-326 325 0
-326 35 0
327 -833 -324 0
-327 833 0
-327 324 0
328 -718 -834 0
-328 718 0
-328 834 0
329 -328 -16 0
-329 328 0
-329 16 0
330 -835 -327 0
-330 835 0
-330 327 0
331 -24 -704 0
-331 24 0
-331 704 0
332 -331 -776 0
-332 331 0
-332 776 0
333 -836 -330 0
-333 836 0
-333 330 0
334 -45 -32 0
-334 45 0
-334 32 0
335 -334 -736 0
-335 334 0
-335 736 0
336 -837 -333 0
-336 837 0
-336 333 0
337 -759 -838 0
-337 759 0
-337 838 0
338 -337 -747 0
-338 337 0
-338 747 0
339 -839 -336 0
-339 839 0
-339 336 0
340 -20 -702 0
-340 20 0
-340 702 0
341 -340 -710 0
-341 340 0
-341 710 0
342 -840 -339 0
-342 840 0
-342 339 0
343 -32 -841 0
-343 32 0
-343 841 0
344 -343 -8 0
-344 343 0
-344 8 0
345 -842 -342 0
-345 842 0
-345 342 0
346 -786 -760 0
-346 786 0
-346 760 0
347 -346 -699 0
-347 346 0
-347 699 0
348 -843 -345 0
-348 843 0
-348 345 0
349 -741 -26 0
-349 741 0
-349 26 0
350 -349 -710 0
-350 349 0
-350 710 0
351 -844 -348 0
-351 844 0
-351 348 0
352 -31 -717 0
-352 31 0
-352 717 0
353 -352 -737 0
-353 352 0
-353 737 0
354 -845 -351 0
-354 845 0
-354 351 0
355 -760 -779 0
-355 760 0
-355 779 0
356 -355 -1 0
-356 355 0
-356 1 0
357 -846 -354 0
-357 846 0
-357 354 0
358 -706 -4 0
-358 706 0
-358 4 0
359 -358 -841 0
-359 358 0
-359 841 0
360 -847 -357 0
-360 847 0
-360 357 0
361 -23 -704 0
-361 23 0
-361 704 0
362 -361 -22 0
-362 361 0
-362 22 0
363 -848 -360 0
-363 848 0
-363 360 0
364 -736 -15 0
-364 736 0
-364 15 0
365 -364 -41 0
-365 364 0
-365 41 0
366 -849 -363 0
-366 849 0
-366 363 0
367 -46 -9 0
-367 46 0
-367 9 0
368 -367 -761 0
-368 367 0
-368 761 0
369 -850 -366 0
-369 850 0
-369 366 0
370 -31 -838 0
-370 31 0
-370 838 0
371 -370 -35 0
-371 370 0
-371 35 0
372 -851 -369 0
-372 851 0
-372 369 0
373 -22 -699 0
-373 22 0
-373 699 0
374 -373 -834 0
-374 373 0
-374 834 0
375 -852 -372 0
-375 852 0
-375 372 0
376 -784 -699 0
-376 784 0
-376 699 0
377 -376 -14 0
-377 376 0
-377 14 0
378 -853 -375 0
-378 853 0
-378 375 0
379 -307 -30 0
-379 307 0
-379 30 0
380 -854 -378 0
-380 854 0
-380 378 0
381 -717 -829 0
-381 717 0
-381 829 0
382 -381 -781 0
-382 381 0
-382 781 0
383 -855 -380 0
-383 855 0
-383 380 0
384 -30 -5 0
-384 30 0
-384 5 0
385 -384 -775 0
-385 384 0
-385 775 0
386 -856 -383 0
-386 856 0
-386 383 0
387 -12 -11 0
-387 12 0
-387 11 0
388 -387 -776 0
-388 387 0
-388 776 0
389 -857 -386 0
-389 857 0
-389 386 0
390 -14 -743 0
-390 14 0
-390 743 0
391 -390 -38 0
-391 390 0
-391 38 0
392 -858 -389 0
-392 858 0
-392 389 0
393 -44 -760 0
-393 44 0
-393 760 0
394 -393 -7 0
-394 393 0
-394 7 0
395 -859 -392 0
-395 859 0
-395 392 0
396 -24 -8 0
-396 24 0
-396 8 0
397 -396 -710 0
-397 396 0
-397 710 0
398 -860 -395 0
-398 860 0
-398 395 0
399 -770 -737 0
-399 770 0
-399 737 0
400 -399 -21 0
-400 399 0
-400 21 0
401 -861 -398 0
-401 861 0
-401 398 0
402 -862 -6 0
-402 862 0
-402 6 0
403 -402 -35 0
-403 402 0
-403 35 0
404 -863 -401 0
-404 863 0
-404 401 0
405 -45 -14 0
-405 45 0
-405 14 0
406 -405 -19 0
-406 405 0
-406 19 0
407 -864 -404 0
-407 864 0
-407 404 0
408 -792 -7 0
-408 792 0
-408 7 0
409 -408 -16 0
-409 408 0
-409 16 0
410 -865 -407 0
-410 865 0
-410 407 0
411 -41 -772 0
-411 41 0
-411 772 0
412 -411 -776 0
-412 411 0
-412 776 0
413 -866 -410 0
-413 866 0
-413 410 0
414 -83 -13 0
-414 83 0
-414 13 0
415 -867 -413 0
-415 867 0
-415 413 0
416 -44 -732 0
-416 44 0
-416 732 0
417 -416 -701 0
-417 416 0
-417 701 0
418 -868 -415 0
-418 868 0
-418 415 0
419 -744 -14 0
-419 744 0
-419 14 0
420 -419 -3 0
-420 419 0
-420 3 0
421 -869 -418 0
-421 869 0
-421 418 0
422 -50 -706 0
-422 50 0
-422 706 0
423 -422 -19 0
-423 422 0
-423 19 0
424 -870 -421 0
-424 870 0
-424 421 0
425 -702 -8 0
-425 702 0
-425 8 0
426 -425 -761 0
-426 425 0
-426 761 0
427 -871 -424 0
-427 871 0
-427 424 0
428 -717 -6 0
-428 717 0
-428 6 0
429 -428 -34 0
-429 428 0
-429 34 0
430 -872 -427 0
-430 872 0
-430 427 0
431 -48 -747 0
-431 48 0
-431 747 0
432 -431 -22 0
-432 431 0
-432 22 0
433 -873 -430 0
-433 873 0
-433 430 0
434 -781 -27 0
-434 781 0
-434 27 0
435 -434 -22 0
-435 434 0
-435 22 0
436 -874 -433 0
-436 874 0
-436 433 0
437 -786 -28 0
-437 786 0
-437 28 0
438 -437 -712 0
-438 437 0
-438 712 0
439 -875 -436 0
-439 875 0
-439 436 0
440 -779 -696 0
-440 779 0
-440 696 0
441 -440 -9 0
-441 440 0
-441 9 0
442 -876 -439 0
-442 876 0
-442 439 0
443 -781 -775 0
-443 781 0
-443 775 0
444 -443 -702 0
-444 443 0
-444 702 0
445 -877 -442 0
-445 877 0
-445 442 0
446 -784 -772 0
-446 784 0
-446 772 0
447 -446 -702 0
-447 446 0
-447 702 0
448 -878 -445 0
-448 878 0
-448 445 0
449 -38 -4 0
-449 38 0
-449 4 0
450 -449 -16 0
-450 449 0
-450 16 0
451 -879 -448 0
-451 879 0
-451 448 0
452 -47 -19 0
-452 47 0
-452 19 0
453 -452 -834 0
-453 452 0
-453 834 0
454 -880 -451 0
-454 880 0
-454 451 0
455 -801 -752 0
-455 801 0
-455 752 0
456 -455 -13 0
-456 455 0
-456 13 0
457 -881 -454 0
-457 881 0
-457 454 0
458 -862 -17 0
-458 862 0
-458 17 0
459 -458 -761 0
-459 458 0
-459 761 0
460 -882 -457 0
-460 882 0
-460 457 0
461 -48 -37 0
-461 48 0
-461 37 0
462 -461 -834 0
-462 461 0
-462 834 0
463 -883 -460 0
-463 883 0
-463 460 0
464 -46 -801 0
-464 46 0
-464 801 0
465 -464 -788 0
-465 464 0
-465 788 0
466 -884 -463 0
-466 884 0
-466 463 0
467 -736 -5 0
-467 736 0
-467 5 0
468 -467 -30 0
-468 467 0
-468 30 0
469 -885 -466 0
-469 885 0
-469 466 0
470 -49 -738 0
-470 49 0
-470 738 0
471 -470 -40 0
-471 470 0
-471 40 0
472 -886 -469 0
-472 886 0
-472 469 0
473 -768 -21 0
-473 768 0
-473 21 0
474 -473 -741 0
-474 473 0
-474 741 0
475 -887 -472 0
-475 887 0
-475 472 0
476 -770 -738 0
-476 770 0
-476 738 0
477 -476 -47 0
-477 476 0
-477 47 0
478 -888 -475 0
-478 888 0
-478 475 0
479 -770 -5 0
-479 770 0
-479 5 0
480 -479 -39 0
-480 479 0
-480 39 0
481 -889 -478 0
-481 889 0
-481 478 0
482 -786 -730 0
-482 786 0
-482 730 0
483 -482 -16 0
-483 482 0
-483 16 0
484 -890 -481 0
-484 890 0
-484 481 0
485 -752 -17 0
-485 752 0
-485 17 0
486 -485 -736 0
-486 485 0
-486 736 0
487 -891 -484 0
-487 891 0
-487 484 0
488 -30 -712 0
-488 30 0
-488 712 0
489 -488 -730 0
-489 488 0
-489 730 0
490 -892 -487 0
-490 892 0
-490 487 0
491 -741 -38 0
-491 741 0
-491 38 0
492 -491 -34 0
-492 491 0
-492 34 0
493 -893 -490 0
-493 893 0
-493 490 0
494 -381 -38 0
-494 381 0
-494 38 0
495 -894 -493 0
-495 894 0
-495 493 0
496 -28 -717 0
-496 28 0
-496 717 0
497 -496 -41 0
-497 496 0
-497 41 0
498 -895 -495 0
-498 895 0
-498 495 0
499 -33 -30 0
-499 33 0
-499 30 0
500 -499 -2 0
-500 499 0
-500 2 0
501 -896 -498 0
-501 896 0
-501 498 0
502 -26 -715 0
-502 26 0
-502 715 0
503 -502 -702 0
-503 502 0
-503 702 0
504 -897 -501 0
-504 897 0
-504 501 0
505 -47 -9 0
-505 47 0
-505 9 0
506 -505 -14 0
-506 505 0
-506 14 0
507 -898 -504 0
-507 898 0
-507 504 0
508 -12 -8 0
-508 12 0
-508 8 0
509 -508 -723 0
-509 508 0
-509 723 0
510 -899 -507 0
-510 899 0
-510 507 0
511 -27 -15 0
-511 27 0
-511 15 0
512 -511 -10 0
-512 511 0
-512 10 0
513 -900 -510 0
-513 900 0
-513 510 0
514 -781 -719 0
-514 781 0
-514 719 0
515 -514 -19 0
-515 514 0
-515 19 0
516 -901 -513 0
-516 901 0
-516 513 0
517 -18 -1 0
-517 18 0
-517 1 0
518 -517 -761 0
-518 517 0
-518 761 0
519 -902 -516 0
-519 902 0
-519 516 0
520 -39 -6 0
-520 39 0
-520 6 0
521 -520 -35 0
-521 520 0
-521 35 0
522 -903 -519 0
-522 903 0
-522 519 0
523 -744 -27 0
-523 744 0
-523 27 0
524 -523 -36 0
-524 523 0
-524 36 0
525 -904 -522 0
-525 904 0
-525 522 0
526 -49 -6 0
-526 49 0
-526 6 0
527 -526 -722 0
-527 526 0
-527 722 0
528 -905 -525 0
-528 905 0
-528 525 0
529 -730 -829 0
-529 730 0
-529 829 0
530 -529 -723 0
-530 529 0
-530 723 0
531 -906 -528 0
-531 906 0
-531 528 0
532 -26 -7 0
-532 26 0
-532 7 0
533 -532 -741 0
-533 532 0
-533 741 0
534 -907 -531 0
-534 907 0
-534 531 0
535 -307 -47 0
-535 307 0
-535 47 0
536 -908 -534 0
-536 908 0
-536 534 0
537 -763 -21 0
-537 763 0
-537 21 0
538 -537 -43 0
-538 537 0
-538 43 0
539 -909 -536 0
-539 909 0
-539 536 0
540 -770 -33 0
-540 770 0
-540 33 0
541 -540 -41 0
-541 540 0
-541 41 0
542 -910 -539 0
-542 910 0
-542 539 0
543 -719 -1 0
-543 719 0
-543 1 0
544 -543 -701 0
-544 543 0
-544 701 0
545 -911 -542 0
-545 911 0
-545 542 0
546 -717 -7 0
-546 717 0
-546 7 0
547 -546 -699 0
-547 546 0
-547 699 0
548 -912 -545 0
-548 912 0
-548 545 0
549 -801 -44 0
-549 801 0
-549 44 0
550 -549 -738 0
-550 549 0
-550 738 0
551 -913 -548 0
-551 913 0
-551 548 0
552 -732 -27 0
-552 732 0
-552 27 0
553 -552 -16 0
-553 552 0
-553 16 0
554 -914 -551 0
-554 914 0
-554 551 0
555 -31 -28 0
-555 31 0
-555 28 0
556 -555 -41 0
-556 555 0
-556 41 0
557 -915 -554 0
-557 915 0
-557 554 0
558 -50 -5 0
-558 50 0
-558 5 0
559 -558 -838 0
-559 558 0
-559 838 0
560 -916 -557 0
-560 916 0
-560 557 0
561 -28 -726 0
-561 28 0
-561 726 0
562 -561 -730 0
-562 561 0
-562 730 0
563 -917 -560 0
-563 917 0
-563 560 0
564 -706 -726 0
-564 706 0
-564 726 0
565 -564 -747 0
-565 564 0
-565 747 0
566 -918 -563 0
-566 918 0
-566 563 0
567 -792 -10 0
-567 792 0
-567 10 0
568 -567 -723 0
-568 567 0
-568 723 0
569 -919 -566 0
-569 919 0
-569 566 0
570 -48 -26 0
-570 48 0
-570 26 0
571 -570 -2 0
-571 570 0
-571 2 0
572 -920 -569 0
-572 920 0
-572 569 0
573 -734 -838 0
-573 734 0
-573 838 0
574 -573 -19 0
-574 573 0
-574 19 0
575 -921 -572 0
-575 921 0
-575 572 0
576 -38 -14 0
-576 38 0
-576 14 0
577 -576 -11 0
-577 576 0
-577 11 0
578 -922 -575 0
-578 922 0
-578 575 0
579 -37 -36 0
-579 37 0
-579 36 0
580 -579 -734 0
-580 579 0
-580 734 0
581 -923 -578 0
-581 923 0
-581 578 0
582 -862 -737 0
-582 862 0
-582 737 0
583 -582 -763 0
-583 582 0
-583 763 0
584 -924 -581 0
-584 924 0
-584 581 0
585 -779 -6 0
-585 779 0
-585 6 0
586 -585 -701 0
-586 585 0
-586 701 0
587 -925 -584 0
-587 925 0
-587 584 0
588 -50 -792 0
-588 50 0
-588 792 0
589 -588 -48 0
-589 588 0
-589 48 0
590 -926 -587 0
-590 926 0
-590 587 0
591 -744 -752 0
-591 744 0
-591 752 0
592 -591 -704 0
-592 591 0
-592 704 0
593 -927 -590 0
-593 927 0
-593 590 0
594 -38 -701 0
-594 38 0
-594 701 0
595 -594 -710 0
-595 594 0
-595 710 0
596 -928 -593 0
-596 928 0
-596 593 0
597 -39 -752 0
-597 39 0
-597 752 0
598 -597 -37 0
-598 597 0
-598 37 0
599 -929 -596 0
-599 929 0
-599 596 0
600 -862 -25 0
-600 862 0
-600 25 0
601 -600 -34 0
-601 600 0
-601 34 0
602 -930 -599 0
-602 930 0
-602 599 0
603 -34 -717 0
-603 34 0
-603 717 0
604 -603 -22 0
-604 603 0
-604 22 0
605 -931 -602 0
-605 931 0
-605 602 0
606 -752 -23 0
-606 752 0
-606 23 0
607 -606 -34 0
-607 606 0
-607 34 0
608 -932 -605 0
-608 932 0
-608 605 0
609 -741 -933 0
-609 741 0
-609 933 0
610 -609 -42 0
-610 609 0
-610 42 0
611 -934 -608 0
-611 934 0
-611 608 0
612 -32 -6 0
-612 32 0
-612 6 0
613 -612 -775 0
-613 612 0
-613 775 0
614 -935 -611 0
-614 935 0
-614 611 0
615 -21 -5 0
-615 21 0
-615 5 0
616 -615 -713 0
-616 615 0
-616 713 0
617 -936 -614 0
-617 936 0
-617 614 0
618 -759 -726 0
-618 759 0
-618 726 0
619 -618 -24 0
-619 618 0
-619 24 0
620 -937 -617 0
-620 937 0
-620 617 0
621 -30 -792 0
-621 30 0
-621 792 0
622 -621 -42 0
-622 621 0
-622 42 0
623 -938 -620 0
-623 938 0
-623 620 0
624 -704 -8 0
-624 704 0
-624 8 0
625 -624 -34 0
-625 624 0
-625 34 0
626 -939 -623 0
-626 939 0
-626 623 0
627 -23 -792 0
-627 23 0
-627 792 0
628 -627 -699 0
-628 627 0
-628 699 0
629 -940 -626 0
-629 940 0
-629 626 0
630 -27 -20 0
-630 27 0
-630 20 0
631 -630 -696 0
-631 630 0
-631 696 0
632 -941 -629 0
-632 941 0
-632 629 0
633 -39 -26 0
-633 39 0
-633 26 0
634 -633 -732 0
-634 633 0
-634 732 0
635 -942 -632 0
-635 942 0
-635 632 0
636 -763 -736 0
-636 763 0
-636 736 0
637 -636 -8 0
-637 636 0
-637 8 0
638 -943 -635 0
-638 943 0
-638 635 0
639 -49 -743 0
-639 49 0
-639 743 0
640 -639 -15 0
-640 639 0
-640 15 0
641 -944 -638 0
-641 944 0
-641 638 0
642 -12 -2 0
-642 12 0
-642 2 0
643 -642 -723 0
-643 642 0
-643 723 0
644 -945 -641 0
-644 945 0
-644 641 0
645 -45 -726 0
-645 45 0
-645 726 0
646 -645 -702 0
-646 645 0
-646 702 0
647 -946 -644 0
-647 946 0
-647 644 0
648 -933 -696 0
-648 933 0
-648 696 0
649 -648 -45 0
-649 648 0
-649 45 0
650 -947 -647 0
-650 947 0
-650 647 0
651 -12 -726 0
-651 12 0
-651 726 0
652 -651 -16 0
-652 651 0
-652 16 0
653 -948 -650 0
-653 948 0
-653 650 0
654 -752 -838 0
-654 752 0
-654 838 0
655 -654 -829 0
-655 654 0
-655 829 0
656 -949 -653 0
-656 949 0
-656 653 0
657 -49 -768 0
-657 49 0
-657 768 0
658 -657 -34 0
-658 657 0
-658 34 0
659 -950 -656 0
-659 950 0
-659 656 0
660 -20 -12 0
-660 20 0
-660 12 0
661 -660 -16 0
-661 660 0
-661 16 0
662 -951 -659 0
-662 951 0
-662 659 0
663 -829 -743 0
-663 829 0
-663 743 0
664 -663 -713 0
-664 663 0
-664 713 0
665 -952 -662 0
-665 952 0
-665 662 0
666 -440 -726 0
-666 440 0
-666 726 0
667 -953 -665 0
-667 953 0
-667 665 0
668 -39 -15 0
-668 39 0
-668 15 0
669 -668 -7 0
-669 668 0
-669 7 0
670 -954 -667 0
-670 954 0
-670 667 0
671 -50 -801 0
-671 50 0
-671 801 0
672 -671 -710 0
-672 671 0
-672 710 0
673 -955 -670 0
-673 955 0
-673 670 0
674 -110 -16 0
-674 110 0
-674 16 0
675 -956 -673 0
-675 956 0
-675 673 0
676 -244 -9 0
-676 244 0
-676 9 0
677 -957 -675 0
-677 957 0
-677 675 0
678 -717 -12 0
-678 717 0
-678 12 0
679 -678 -772 0
-679 678 0
-679 772 0
680 -958 -677 0
-680 958 0
-680 677 0
681 -736 -743 0
-681 736 0
-681 743 0
682 -681 -759 0
-682 681 0
-682 759 0
683 -959 -680 0
-683 959 0
-683 680 0
684 -792 -718 0
-684 792 0
-684 718 0
685 -684 -9 0
-685 684 0
-685 9 0
686 -960 -683 0
-686 960 0
-686 683 0
687 -786 -829 0
-687 786 0
-687 829 0
688 -687 -734 0
-688 687 0
-688 734 0
689 -961 -686 0
-689 961 0
-689 686 0
690 -27 -723 0
-690 27 0
-690 723 0
691 -690 -776 0
-691 690 0
-691 776 0
692 -962 -689 0
-692 962 0
-692 689 0
693 -12 -829 0
-693 12 0
-693 829 0
694 -693 -48 0
-694 693 0
-694 48 0
695 -963 -692 0
-695 963 0
-695 692 0
-696 -1 0
696 1 0
-697 -54 0
697 54 0
-698 -52 0
698 52 0
-699 -9 0
699 9 0
-700 -57 0
700 57 0
-701 -10 0
701 10 0
-702 -11 0
702 11 0
-703 -60 0
703 60 0
-704 -14 0
704 14 0
-705 -63 0
705 63 0
-706 -15 0
706 15 0
-707 -16 0
707 16 0
-708 -66 0
708 66 0
-709 -69 0
709 69 0
-710 -22 0
710 22 0
-711 -72 0
711 72 0
-712 -23 0
712 23 0
-713 -24 0
713 24 0
-714 -75 0
714 75 0
-715 -25 0
715 25 0
-716 -78 0
716 78 0
-717 -26 0
717 26 0
-718 -5 0
718 5 0
-719 -27 0
719 27 0
-720 -81 0
720 81 0
-721 -84 0
721 84 0
-722 -30 0
722 30 0
-723 -18 0
723 18 0
-724 -87 0
724 87 0
-725 -90 0
725 90 0
-726 -2 0
726 2 0
-727 -93 0
727 93 0
-728 -96 0
728 96 0
-729 -99 0
729 99 0
-730 -35 0
730 35 0
-731 -102 0
731 102 0
-732 -36 0
732 36 0
-733 -105 0
733 105 0
-734 -38 0
734 38 0
-735 -108 0
735 108 0
-736 -39 0
736 39 0
-737 -12 0
737 12 0
-738 -7 0
738 7 0
-739 -111 0
739 111 0
-740 -114 0
740 114 0
-741 -40 0
741 40 0
-742 -117 0
742 117 0
-743 -4 0
743 4 0
-744 -41 0
744 41 0
-745 -120 0
745 120 0
-746 -123 0
746 123 0
-747 -43 0
747 43 0
-748 -126 0
748 126 0
-749 -129 0
749 129 0
-750 -132 0
750 132 0
-751 -135 0
751 135 0
-752 -28 0
752 28 0
-753 -138 0
753 138 0
-754 -141 0
754 141 0
-755 -144 0
755 144 0
-756 -147 0
756 147 0
-757 -150 0
757 150 0
-758 -153 0
758 153 0
-759 -47 0
759 47 0
-760 -33 0
760 33 0
-761 -42 0
761 42 0
-762 -156 0
762 156 0
-763 -48 0
763 48 0
-764 -159 0
764 159 0
-765 -162 0
765 162 0
-766 -165 0
766 165 0
-767 -168 0
767 168 0
-768 -32 0
768 32 0
-769 -171 0
769 171 0
-770 -49 0
770 49 0
-771 -174 0
771 174 0
-772 -34 0
772 34 0
-773 -177 0
773 177 0
-774 -180 0
774 180 0
-775 -8 0
775 8 0
-776 -19 0
776 19 0
-777 -183 0
777 183 0
-778 -186 0
778 186 0
-779 -29 0
779 29 0
-780 -189 0
780 189 0
-781 -37 0
781 37 0
-782 -192 0
782 192 0
-783 -195 0
783 195 0
-784 -44 0
784 44 0
-785 -198 0
785 198 0
-786 -50 0
786 50 0
-787 -201 0
787 201 0
-788 -13 0
788 13 0
-789 -204 0
789 204 0
-790 -207 0
790 207 0
-791 -209 0
791 209 0
-792 -17 0
792 17 0
-793 -212 0
793 212 0
-794 -215 0
794 215 0
-795 -218 0
795 218 0
-796 -221 0
796 221 0
-797 -224 0
797 224 0
-798 -227 0
798 227 0
-799 -230 0
799 230 0
-800 -233 0
800 233 0
-801 -45 0
801 45 0
-802 -236 0
802 236 0
-803 -239 0
803 239 0
-804 -242 0
804 242 0
-805 -245 0
805 245 0
-806 -248 0
806 248 0
-807 -251 0
807 251 0
-808 -254 0
808 254 0
-809 -257 0
809 257 0
-810 -260 0
810 260 0
-811 -263 0
811 263 0
-812 -266 0
812 266 0
-813 -269 0
813 269 0
-814 -272 0
814 272 0
-815 -275 0
815 275 0
-816 -278 0
816 278 0
-817 -281 0
817 281 0
-818 -284 0
818 284 0
-819 -287 0
819 287 0
-820 -290 0
820 290 0
-821 -293 0
821 293 0
-822 -296 0
822 296 0
-823 -299 0
823 299 0
-824 -302 0
824 302 0
-825 -305 0
825 305 0
-826 -308 0
826 308 0
-827 -311 0
827 311 0
-828 -314 0
828 314 0
-829 -6 0
829 6 0
-830 -317 0
830 317 0
-831 -320 0
831 320 0
-832 -323 0
832 323 0
-833 -326 0
833 326 0
-834 -3 0
834 3 0
-835 -329 0
835 329 0
-836 -332 0
836 332 0
-837 -335 0
837 335 0
-838 -20 0
838 20 0
-839 -338 0
839 338 0
-840 -341 0
840 341 0
-841 -21 0
841 21 0
-842 -344 0
842 344 0
-843 -347 0
843 347 0
-844 -350 0
844 350 0
-845 -353 0
845 353 0
-846 -356 0
846 356 0
-847 -359 0
847 359 0
-848 -362 0
848 362 0
-849 -365 0
849 365 0
-850 -368 0
850 368 0
-851 -371 0
851 371 0
-852 -374 0
852 374 0
-853 -377 0
853 377 0
-854 -379 0
854 379 0
-855 -382 0
855 382 0
-856 -385 0
856 385 0
-857 -388 0
857 388 0
-858 -391 0
858 391 0
-859 -394 0
859 394 0
-860 -397 0
860 397 0
-861 -400 0
861 400 0
-862 -46 0
862 46 0
-863 -403 0
863 403 0
-864 -406 0
864 406 0
-865 -409 0
865 409 0
-866 -412 0
866 412 0
-867 -414 0
867 414 0
-868 -417 0
868 417 0
-869 -420 0
869 420 0
-870 -423 0
870 423 0
-871 -426 0
871 426 0
-872 -429 0
872 429 0
-873 -432 0
873 432 0
-874 -435 0
874 435 0
-875 -438 0
875 438 0
-876 -441 0
876 441 0
-877 -444 0
877 444 0
-878 -447 0
878 447 0
-879 -450 0
879 450 0
-880 -453 0
880 453 0
-881 -456 0
881 456 0
-882 -459 0
882 459 0
-883 -462 0
883 462 0
-884 -465 0
884 465 0
-885 -468 0
885 468 0
-886 -471 0
886 471 0
-887 -474 0
887 474 0
-888 -477 0
888 477 0
-889 -480 0
889 480 0
-890 -483 0
890 483 0
-891 -486 0
891 486 0
-892 -489 0
892 489 0
-893 -492 0
893 492 0
-894 -494 0
894 494 0
-895 -497 0
895 497 0
-896 -500 0
896 500 0
-897 -503 0
897 503 0
-898 -506 0
898 506 0
-899 -509 0
899 509 0
-900 -512 0
900 512 0
-901 -515 0
901 515 0
-902 -518 0
902 518 0
-903 -521 0
903 521 0
-904 -524 0
904 524 0
-905 -527 0
905 527 0
-906 -530 0
906 530 0
-907 -533 0
907 533 0
-908 -535 0
908 535 0
-909 -538 0
909 538 0
-910 -541 0
910 541 0
-911 -544 0
911 544 0
-912 -547 0
912 547 0
-913 -550 0
913 550 0
-914 -553 0
914 553 0
-915 -556 0
915 556 0
-916 -559 0
916 559 0
-917 -562 0
917 562 0
-918 -565 0
918 565 0
-919 -568 0
919 568 0
-920 -571 0
920 571 0
-921 -574 0
921 574 0
-922 -577 0
922 577 0
-923 -580 0
923 580 0
-924 -583 0
924 583 0
-925 -586 0
925 586 0
-926 -589 0
926 589 0
-927 -592 0
927 592 0
-928 -595 0
928 595 0
-929 -598 0
929 598 0
-930 -601 0
930 601 0
-931 -604 0
931 604 0
-932 -607 0
932 607 0
-933 -31 0
933 31 0
-934 -610 0
934 610 0
-935 -613 0
935 613 0
-936 -616 0
936 616 0
-937 -619 0
937 619 0
-938 -622 0
938 622 0
-939 -625 0
939 625 0
-940 -628 0
940 628 0
-941 -631 0
941 631 0
-942 -634 0
942 634 0
-943 -637 0
943 637 0
-944 -640 0
944 640 0
-945 -643 0
945 643 0
-946 -646 0
946 646 0
-947 -649 0
947 649 0
-948 -652 0
948 652 0
-949 -655 0
949 655 0
-950 -658 0
950 658 0
-951 -661 0
951 661 0
-952 -664 0
952 664 0
-953 -666 0
953 666 0
-954 -669 0
954 669 0
-955 -672 0
955 672 0
-956 -674 0
956 674 0
-957 -676 0
957 676 0
-958 -679 0
958 679 0
-959 -682 0
959 682 0
-960 -685 0
960 685 0
-961 -688 0
961 688 0
-962 -691 0
962 691 0
-963 -694 0
963 694 0
695 0
